0 6 6 6 6 6 6 6 6 6 6 6 
6 0 6 12 3 12 4 13 8 12 6 8 
6 6 0 13 3 10 6 11 6 6 6 6 
6 12 13 0 3 4 13 20 6 8 6 11 
6 3 3 3 0 3 3 10 3 3 3 3 
6 12 10 4 3 0 15 19 11 14 6 11 
6 4 6 13 3 15 0 14 8 7 6 3 
6 13 11 20 10 19 14 0 16 18 18 19 
6 8 6 6 3 11 8 16 0 8 6 8 
6 12 6 8 3 14 7 18 8 0 6 2 
6 6 6 6 3 6 6 18 6 6 0 6 
6 8 6 11 3 11 3 19 8 2 6 0 